(set-info :smt-lib-version 2.6)
(set-logic QF_FPBV)
(set-info :source |Random FP created by PyMPF|)
(set-info :license |https://www.gnu.org/licenses/gpl-3.0.html|)
(set-info :category random)
(set-info :status unsat)
;; fp.from.ubv(BitVec 16)
(declare-const x (_ BitVec 16))
(assert (bvule x #b0000101100011011))
;; x should be 2843

(declare-const r Float16)
(assert (= r ((_ to_fp_unsigned 5 11) RTP x)))
(assert (not (fp.leq r ((_ to_fp 5 11) #x698E))))
(check-sat)
(exit)
